c FILE /home/rafael/Documents/HappySet/MIHS/inputs/happygen/output/graph_scale_free_k3_p0.1_v100_20241127_083805.txt
c SOURCE This is a scale-free graph formed for the happy graph colouring problem.
c DESCRIPTION It was generated using the problem generator of Rhyd Lewis
c
c GRAPH STATS
c Seed                             = 19706118
c Number of Nodes                  = 100
c Number of colours k              = 3
c Number of pre-assignments        = 10
c Number of links per new node     = 5
c Density                          = 0.0979798
c 
c The degrees of nodes 1 to 100, respectively, are as follows 
c [42, 33, 32, 27, 26, 25, 24, 23, 23, 20, 19, 18, 18, 16, 16, 15, 14, 13, 13, 12, 12, 12, 11, 10, 10, 10, 
c  10, 10, 10, 10, 9, 9, 9, 9, 8, 8, 8, 8, 8, 8, 8, 8, 8, 8, 8, 8, 8, 8, 8, 7, 7, 
c  7, 7, 6, 6, 6, 6, 6, 6, 6, 6, 6, 6, 6, 6, 6, 6, 6, 6, 6, 5, 5, 5, 5, 5, 5, 
c  5, 5, 5, 5, 5, 5, 5, 5, 5, 5, 5, 5, 5, 5, 5, 5, 5, 5, 5, 5, 5, 5, 5, 5] 
c  
p edge 100 485 3
e 1 2
e 1 3
e 1 4
e 1 5
e 1 6
e 1 7
e 1 8
e 1 9
e 1 10
e 1 11
e 1 12
e 1 13
e 1 14
e 1 16
e 1 18
e 1 19
e 1 21
e 1 22
e 1 23
e 1 24
e 1 25
e 1 29
e 1 31
e 1 32
e 1 33
e 1 35
e 1 36
e 1 37
e 1 38
e 1 43
e 1 46
e 1 47
e 1 51
e 1 56
e 1 59
e 1 61
e 1 66
e 1 77
e 1 86
e 1 87
e 1 88
e 1 95
e 2 3
e 2 4
e 2 5
e 2 6
e 2 7
e 2 8
e 2 9
e 2 10
e 2 12
e 2 15
e 2 17
e 2 19
e 2 23
e 2 26
e 2 28
e 2 32
e 2 39
e 2 43
e 2 44
e 2 50
e 2 51
e 2 58
e 2 60
e 2 63
e 2 68
e 2 69
e 2 77
e 2 84
e 2 86
e 2 88
e 2 90
e 2 95
e 3 4
e 3 5
e 3 6
e 3 7
e 3 10
e 3 11
e 3 12
e 3 14
e 3 16
e 3 18
e 3 22
e 3 23
e 3 24
e 3 25
e 3 29
e 3 30
e 3 32
e 3 34
e 3 37
e 3 40
e 3 41
e 3 46
e 3 49
e 3 61
e 3 66
e 3 71
e 3 85
e 3 90
e 3 92
e 3 93
e 4 5
e 4 6
e 4 7
e 4 8
e 4 9
e 4 10
e 4 11
e 4 15
e 4 16
e 4 18
e 4 19
e 4 20
e 4 21
e 4 24
e 4 25
e 4 31
e 4 43
e 4 54
e 4 64
e 4 65
e 4 67
e 4 69
e 4 76
e 4 86
e 5 7
e 5 8
e 5 11
e 5 12
e 5 17
e 5 20
e 5 21
e 5 23
e 5 24
e 5 25
e 5 27
e 5 28
e 5 39
e 5 52
e 5 56
e 5 60
e 5 67
e 5 79
e 5 85
e 5 86
e 5 99
e 5 100
e 6 7
e 6 8
e 6 11
e 6 14
e 6 17
e 6 18
e 6 24
e 6 26
e 6 33
e 6 34
e 6 36
e 6 40
e 6 48
e 6 58
e 6 60
e 6 61
e 6 67
e 6 81
e 6 85
e 6 92
e 6 96
e 7 9
e 7 15
e 7 20
e 7 31
e 7 32
e 7 33
e 7 37
e 7 43
e 7 45
e 7 50
e 7 54
e 7 66
e 7 73
e 7 74
e 7 80
e 7 84
e 7 87
e 7 89
e 8 12
e 8 13
e 8 14
e 8 17
e 8 25
e 8 35
e 8 43
e 8 45
e 8 53
e 8 54
e 8 57
e 8 58
e 8 71
e 8 72
e 8 76
e 8 88
e 8 92
e 8 97
e 9 12
e 9 13
e 9 20
e 9 26
e 9 28
e 9 29
e 9 30
e 9 37
e 9 38
e 9 47
e 9 55
e 9 62
e 9 67
e 9 72
e 9 82
e 9 87
e 9 88
e 9 90
e 9 96
e 10 12
e 10 14
e 10 15
e 10 17
e 10 28
e 10 31
e 10 36
e 10 41
e 10 42
e 10 46
e 10 57
e 10 58
e 10 71
e 10 80
e 10 83
e 10 84
e 11 15
e 11 22
e 11 23
e 11 28
e 11 30
e 11 32
e 11 33
e 11 39
e 11 53
e 11 64
e 11 70
e 11 71
e 11 72
e 11 92
e 12 16
e 12 18
e 12 26
e 12 34
e 12 42
e 12 44
e 12 55
e 12 73
e 12 81
e 12 83
e 12 96
e 13 15
e 13 23
e 13 27
e 13 35
e 13 40
e 13 41
e 13 44
e 13 49
e 13 55
e 13 65
e 13 72
e 13 74
e 13 75
e 13 77
e 13 78
e 14 19
e 14 27
e 14 35
e 14 39
e 14 46
e 14 51
e 14 55
e 14 69
e 14 79
e 14 83
e 14 89
e 15 16
e 15 19
e 15 31
e 15 38
e 15 45
e 15 56
e 15 77
e 15 84
e 15 91
e 15 94
e 16 21
e 16 34
e 16 36
e 16 48
e 16 49
e 16 56
e 16 62
e 16 71
e 16 81
e 16 86
e 17 22
e 17 27
e 17 34
e 17 47
e 17 57
e 17 59
e 17 64
e 17 72
e 17 75
e 18 20
e 18 27
e 18 38
e 18 60
e 18 62
e 18 77
e 18 93
e 18 97
e 19 21
e 19 50
e 19 51
e 19 57
e 19 62
e 19 80
e 19 83
e 19 87
e 20 30
e 20 42
e 20 47
e 20 55
e 20 80
e 20 93
e 20 95
e 21 42
e 21 45
e 21 51
e 21 57
e 21 61
e 21 63
e 21 81
e 22 44
e 22 49
e 22 51
e 22 67
e 22 68
e 22 75
e 22 81
e 22 100
e 23 33
e 23 36
e 23 37
e 23 50
e 23 60
e 24 26
e 24 54
e 24 93
e 24 94
e 24 98
e 25 35
e 25 61
e 25 63
e 25 90
e 25 91
e 26 29
e 26 59
e 26 62
e 26 78
e 26 96
e 27 70
e 27 74
e 27 76
e 27 78
e 27 91
e 28 48
e 28 50
e 28 53
e 28 70
e 28 91
e 29 33
e 29 40
e 29 42
e 29 53
e 29 79
e 29 98
e 30 37
e 30 59
e 30 69
e 30 73
e 30 75
e 30 93
e 31 48
e 31 54
e 31 64
e 31 99
e 32 41
e 32 52
e 32 66
e 32 99
e 33 48
e 33 78
e 33 84
e 34 39
e 34 52
e 34 70
e 34 79
e 35 56
e 35 70
e 35 100
e 36 38
e 36 83
e 36 98
e 37 73
e 37 79
e 38 41
e 38 53
e 38 89
e 39 47
e 39 52
e 39 98
e 40 50
e 40 52
e 40 64
e 40 95
e 41 46
e 41 76
e 41 94
e 42 44
e 42 66
e 42 74
e 43 63
e 43 80
e 43 94
e 44 45
e 44 76
e 44 92
e 45 75
e 45 88
e 45 90
e 46 78
e 46 82
e 46 99
e 47 69
e 47 97
e 47 98
e 48 68
e 48 85
e 48 91
e 49 66
e 49 82
e 49 85
e 49 89
e 50 68
e 51 74
e 52 87
e 52 97
e 53 97
e 53 100
e 54 73
e 55 63
e 56 89
e 57 58
e 58 59
e 59 96
e 60 65
e 61 65
e 62 100
e 63 82
e 64 65
e 65 82
e 67 68
e 68 94
e 69 95
e 70 99
n 4 1
n 13 3
n 14 1
n 21 1
n 37 3
n 40 3
n 51 1
n 66 2
n 72 3
n 86 1
